K = 3;
puzzle=[|
_, _, _, _, _, _, _, _, _|
_, 6, _, 4, _, 1, _, 7, _|
_, _, _, _, 8, 2, _, _, _|
_, 1, _, 8, _, _, _, 4, _|
_, _, 7, _, _, _, 9, _, _|
_, 5, _, 1, _, 6, 3, 2, _|
_, _, _, _, _, 7, _, 9, _|
_, 4, _, 6, 1, _, _, _, _|
_, _, _, _, _, _, _, _, _|
|];